c description: Random 3-CNF over 13 variables and 39 clauses
p cnf 13 39
-3 -12 13 0
4 -10 -13 0
-8 -11 -12 0
2 -3 4 0
1 -4 -13 0
2 -4 11 0
1 -2 10 0
6 -9 -11 0
-7 -9 -12 0
7 8 9 0
1 7 -8 0
-6 7 10 0
-5 -8 11 0
-1 -9 13 0
1 9 -10 0
-5 -7 -10 0
-7 -10 -13 0
-5 -7 11 0
4 12 -13 0
2 5 12 0
1 5 9 0
1 -4 10 0
1 6 -13 0
1 3 11 0
2 4 9 0
3 6 -11 0
-6 10 -12 0
-7 8 10 0
5 6 10 0
3 -6 7 0
1 8 13 0
-3 -4 10 0
-3 -7 8 0
-2 4 6 0
-2 -5 -12 0
5 -6 -10 0
-4 -7 8 0
-2 4 13 0
6 -7 -11 0